; benchmark generated from python API
(set-info :status unknown)
(declare-fun S_0 () Real)
(declare-fun S_1 () Real)
(declare-fun C () Real)
(declare-fun A_0 () Real)
(declare-fun L_0 () Real)
(declare-fun S_4 () Real)
(declare-fun L_3 () Real)
(declare-fun A_4 () Real)
(declare-fun L0 () Real)
(declare-fun L_1 () Real)
(declare-fun A_2 () Real)
(declare-fun A_3 () Real)
(declare-fun A_1 () Real)
(declare-fun L_2 () Real)
(declare-fun S_3 () Real)
(declare-fun Q_4 () Real)
(declare-fun S_2 () Real)
(assert
 (let (($x37 (>= L0 0.0)))
 (let (($x790 (>= C 5.0)))
 (let ((?x289 (* (- 1.0) C)))
 (let ((?x515 (* (- 1.0) A_2)))
 (let ((?x483 (* (- 1.0) L_3)))
 (let ((?x47104 (+ ?x483 A_3 ?x515 L_1 ?x289)))
 (let (($x47530 (>= ?x47104 5.0)))
 (let (($x47526 (<= 0.0 (+ L_1 (* (- 1.0) A_1) C S_0))))
 (let (($x47527 (not $x47526)))
 (let ((?x590 (* (- 1.0) L_0)))
 (let ((?x45453 (+ C L_2 ?x515 A_1 ?x590)))
 (let (($x45454 (<= 0.0 ?x45453)))
 (let (($x46114 (not $x45454)))
 (let (($x74 (= L_3 L_2)))
 (let (($x104785 (or $x74 $x47530 (<= (+ L_3 (* 2.0 C) (* (- 1.0) A_3) S_1) (- 5.0)))))
 (let (($x47782 (<= 0.0 (+ L_0 (* (- 1.0) A_1) C S_0))))
 (let (($x47783 (not $x47782)))
 (let (($x3790 (= L_3 L_0)))
 (let (($x109355 (or $x3790 (not (<= (+ A_3 ?x483) (+ A_2 ?x590 C))) $x47783 (<= (+ C ?x515 A_1) (- 5.0)))))
 (let ((?x45533 (+ C ?x515 A_1)))
 (let (($x45534 (<= 0.0 ?x45533)))
 (let ((?x484 (+ A_3 ?x483)))
 (let (($x45471 (<= ?x484 (+ A_2 ?x590 C))))
 (let (($x105568 (or $x3790 $x45471 $x45534 (<= (+ (* 2.0 C) A_1 L_3 ?x590 (* (- 1.0) A_3)) (- 5.0)) $x47783)))
 (let (($x105304 (or $x74 $x47526 $x47530 (<= (+ L_3 (* 3.0 C) (* (- 1.0) A_3) S_0) (- 5.0)))))
 (let (($x54 (= L_1 L_0)))
 (let (($x108066 (or $x54 (<= (+ (* (- 2.0) C) (* (- 1.0) A_1) L_1 S_3) (- 5.0)))))
 (let (($x45576 (not (<= 0.0 (+ (* 2.0 C) A_1 ?x590 (* (- 1.0) A_3) L_3)))))
 (let (($x45082 (<= A_3 (+ ?x289 (* (- 1.0) Q_4) A_4))))
 (let (($x996 (= Q_4 0.0)))
 (let (($x46105 (<= (+ A_4 ?x515 (* (- 2.0) C)) Q_4)))
 (let (($x1597 (not (= L_1 L_3))))
 (let (($x47050 (<= 0.0 (+ (* 2.0 C) A_1 ?x590 (* (- 1.0) A_3) L_2))))
 (let ((?x503 (* (- 1.0) Q_4)))
 (let ((?x2789 (* (- 3.0) C)))
 (let ((?x303 (* (- 1.0) L_2)))
 (let ((?x45333 (+ ?x303 ?x2789 ?x503 A_4)))
 (let ((?x888 (+ A_1 ?x590)))
 (let (($x45442 (<= ?x888 ?x45333)))
 (let ((?x2802 (* (- 4.0) C)))
 (let ((?x45375 (+ ?x303 ?x2802 ?x503 A_4)))
 (let (($x45722 (<= S_0 ?x45375)))
 (let (($x106812 (or $x996 $x45082 $x45722 (not (<= (+ A_3 ?x303) (+ A_2 (* (- 1.0) L_1) C))) (not (<= (+ C L_1 (* (- 1.0) A_1) S_0) 0.0)))))
 (let (($x105911 (or $x996 $x45534 (<= S_0 (+ ?x590 ?x2802 ?x503 A_4)) $x47782 (not (<= (+ A_2 C) A_3)))))
 (let (($x46093 (<= (+ (* 2.0 C) S_0 (* (- 1.0) S_3)) 0.0)))
 (let (($x46012 (<= (+ C A_1 ?x590 (* (- 1.0) S_3)) 0.0)))
 (let ((?x337 (* (- 1.0) L_1)))
 (let ((?x894 (+ A_2 ?x337)))
 (let (($x1783 (>= S_3 ?x894)))
 (let (($x49417 (<= (+ (* (- 2.0) C) ?x337 (* (- 1.0) S_1) A_2) 0.0)))
 (let (($x46740 (= (+ ?x483 A_3) (+ (* 2.0 C) ?x337 A_1))))
 (let ((?x44478 (+ A_2 ?x337 C)))
 (let (($x45290 (<= ?x484 ?x44478)))
 (let (($x44819 (<= L_1 (+ L_3 (* (- 1.0) A_3) A_1 (* 2.0 C)))))
 (let (($x43539 (not $x44819)))
 (let (($x1876 (= L_3 L_1)))
 (let (($x108790 (or $x74 (>= S_1 (+ L_3 (* (- 1.0) A_3) A_2 (* (- 2.0) L_1) A_1)) (not $x49417))))
 (let (($x45243 (>= S_0 (+ L_3 (* (- 1.0) A_3) A_2 (* (- 2.0) L_1) A_1 ?x289))))
 (let (($x48899 (<= (+ (* (- 2.0) C) ?x337 A_2 (* (- 1.0) A_0) L_0) 0.0)))
 (let ((?x922 (+ A_0 ?x590)))
 (let ((?x2136 (* (- 2.0) L_1)))
 (let ((?x511 (* (- 1.0) A_3)))
 (let ((?x2064 (+ L_3 ?x511 A_2 ?x2136 A_1)))
 (let (($x46897 (= (+ (* 3.0 C) A_1 L_3 Q_4 (* (- 1.0) A_4) ?x590) 0.0)))
 (let ((?x43927 (+ ?x289 A_4 ?x511)))
 (let (($x44942 (<= ?x43927 0.0)))
 (let (($x44946 (not $x44942)))
 (let ((?x492 (* (- 2.0) C)))
 (let ((?x47169 (+ ?x483 ?x492 ?x503 A_4)))
 (let ((?x1392 (+ A_2 ?x590)))
 (let (($x47170 (<= ?x1392 ?x47169)))
 (let ((?x46898 (+ ?x483 ?x2789 ?x503 A_4)))
 (let (($x46899 (<= ?x888 ?x46898)))
 (let (($x1040 (not (<= 0.0 (+ ?x337 L_0)))))
 (let ((?x45130 (+ A_2 ?x303 ?x492 ?x503)))
 (let (($x45137 (<= S_0 ?x45130)))
 (let (($x48425 (not $x45137)))
 (let (($x48636 (= (+ ?x590 (* 3.0 C) L_2 A_1 (* (- 1.0) A_4) Q_4) 0.0)))
 (let (($x46051 (not $x45442)))
 (let (($x45150 (= (+ C Q_4 L_2 ?x515 A_1 ?x590) 0.0)))
 (let ((?x45109 (+ A_2 ?x303 ?x289 ?x503)))
 (let (($x45110 (<= ?x888 ?x45109)))
 (let (($x45144 (not $x45110)))
 (let ((?x694 (+ L_2 ?x483)))
 (let (($x1043 (<= 0.0 ?x694)))
 (let (($x1044 (not $x1043)))
 (let (($x46190 (>= S_0 (+ ?x303 (* (- 5.0) C) ?x503 A_4))))
 (let (($x45112 (>= S_0 (+ A_2 ?x303 ?x2789 ?x503))))
 (let (($x45775 (<= 0.0 (+ C L_2 ?x515 S_1))))
 (let (($x45776 (not $x45775)))
 (let (($x45350 (<= A_2 (+ ?x492 ?x503 A_4))))
 (let ((?x44886 (+ A_2 C)))
 (let (($x45002 (<= A_3 ?x44886)))
 (let (($x57484 (or $x46012 $x46093 (not (<= (+ L_2 ?x515 (* 2.0 C) S_0) (- 5.0))))))
 (let (($x46555 (not (<= 0.0 (+ C L_1 ?x515 S_1)))))
 (let ((?x45944 (+ ?x503 C ?x337 A_1)))
 (let (($x45945 (>= S_3 ?x45944)))
 (let (($x44283 (<= (+ A_4 ?x511 ?x289) Q_4)))
 (let ((?x45113 (+ ?x303 ?x492 ?x503 A_4)))
 (let (($x45114 (>= S_3 ?x45113)))
 (let (($x2994 (>= S_3 (+ A_2 ?x303 ?x503))))
 (let (($x57989 (or $x44946 (= L_3 (+ ?x515 L_1 ?x492 ?x503 A_4)) (not (<= ?x894 ?x47169)))))
 (let (($x47393 (<= ?x894 ?x47169)))
 (let (($x56887 (or $x996 $x1043 (not (<= (+ A_2 ?x303) (+ ?x337 A_1 ?x511 ?x503 A_4))) $x44946 $x47393)))
 (let (($x6443 (<= (+ A_2 ?x303) (+ ?x337 A_1 ?x511 ?x503 A_4))))
 (let ((?x45839 (+ A_3 ?x483 ?x2789 ?x503)))
 (let (($x47537 (<= S_0 ?x45839)))
 (let ((?x45824 (+ A_3 ?x483 ?x492 ?x503)))
 (let (($x45825 (<= ?x888 ?x45824)))
 (let ((?x45063 (+ ?x503 ?x289 ?x337 A_1)))
 (let (($x43593 (<= ?x45063 ?x922)))
 (let (($x1971 (>= Q_4 5.0)))
 (let (($x1042 (not (<= 0.0 (+ L_1 ?x303)))))
 (let (($x45487 (or $x54 $x1042 $x1044 $x1971 (>= (+ (* 3.0 C) Q_4 (* (- 1.0) A_4) A_1) 5.0))))
 (let (($x46149 (<= ?x888 (+ A_2 ?x303 ?x492 ?x511 ?x503 A_4))))
 (let (($x64 (= L_2 L_1)))
 (let (($x46144 (<= ?x45453 (- 5.0))))
 (let (($x45729 (<= (+ L_2 ?x515 (* 2.0 C) S_0) (- 5.0))))
 (let ((?x507 (* (- 1.0) A_4)))
 (let ((?x1578 (* 2.0 C)))
 (let (($x108737 (or $x1043 $x44946 (= (+ ?x515 A_1 ?x1578 Q_4 L_2 ?x507 A_3 ?x590) 0.0) (not $x46149))))
 (let (($x46222 (or $x44942 (= (+ Q_4 A_1 ?x511 ?x590 L_3 ?x1578) 0.0) (not $x45825))))
 (let (($x109319 (or $x44942 (not (<= ?x1392 (+ A_3 ?x483 ?x289 ?x503))) (= Q_4 (+ ?x483 A_3 ?x515 L_0 ?x289)))))
 (let (($x109243 (or (<= 0.0 (+ L_1 ?x483)) $x44942 (= Q_4 ?x47104) (not (<= A_2 (+ C A_1 ?x503))))))
 (let (($x45260 (>= S_1 ?x45063)))
 (let (($x44495 (>= S_0 (+ ?x503 ?x492 ?x337 A_1))))
 (let (($x46423 (<= (+ ?x289 ?x337 A_1 (* (- 1.0) A_0) ?x511 L_3 L_0 S_3) 0.0)))
 (let (($x1668 (not (= L_0 L_1))))
 (let (($x1314 (= L_2 L_0)))
 (let (($x45920 (<= (+ C S_0 (* (- 1.0) S_2)) 0.0)))
 (let (($x45299 (not $x45290)))
 (let (($x1531 (not (= L_1 L_2))))
 (let (($x1820 (not (<= Q_4 0.0))))
 (let (($x792 (or $x996 $x1820)))
 (let (($x36 (>= L_0 L0)))
 (let (($x111 (>= S_1 S_0)))
 (let (($x114 (>= S_2 S_1)))
 (let (($x117 (>= S_3 S_2)))
 (let (($x122 (>= A_1 A_0)))
 (let (($x123 (>= A_2 A_1)))
 (let (($x124 (>= A_3 A_2)))
 (and (<= ?x484 S_4) $x124 $x123 $x122 $x117 $x114 $x111 $x36 (or $x74 $x1044) (or $x54 $x1040) (or $x64 $x1042) (or $x64 (<= (+ L_2 ?x515 S_2) (- 5.0))) (or $x64 (<= (+ C S_1 (* (- 1.0) S_3)) 0.0)) $x792 (or $x54 (<= S_1 (+ ?x503 ?x337 A_1))) (or $x54 $x64 (= (+ C ?x337 A_1 L_2 ?x515) 0.0)) (or $x64 $x74 (= (+ C ?x303 A_2 ?x511 L_3) 0.0)) (or $x74 (<= S_3 (+ ?x503 ?x483 A_3))) (or $x74 (<= S_4 (+ C ?x503 ?x483 A_3))) (or $x74 $x44942 (<= ?x45130 ?x922)) (<= (+ (* (- 1.0) A_1) L_0 S_1) 0.0) (or $x74 $x44942 $x45112) (or $x1531 $x1876 $x45299 (= (+ C ?x337 A_2 ?x511 L_3) 0.0)) (or $x1971 $x44283) (or $x64 $x1044 $x1971 (>= (+ A_2 ?x1578 Q_4 ?x507) 5.0)) (or $x996 (<= S_3 (+ ?x303 ?x289 ?x503 A_4))) (or $x54 $x1531 (<= 0.0 (+ A_1 ?x515 C))) (or $x74 (<= (+ ?x511 L_3 S_3) (- 5.0))) (or $x74 $x1820 (<= ?x43927 (- 5.0))) (or $x1044 $x1971 (>= S_1 ?x45375)) (or $x64 (<= (+ L_2 ?x515 Q_4 S_2) 0.0)) (or $x996 $x45082 (<= S_2 ?x45113)) (<= S_2 ?x894) (or $x44942 (>= S_3 (+ A_3 ?x483 ?x289 ?x503))) (or $x74 (<= S_2 (+ A_3 ?x483 ?x289 ?x503))) (<= (+ ?x289 (* (- 1.0) A_1) L_0 S_2) 0.0) (or $x43593 $x44283) (<= S_4 (+ A_2 ?x337 ?x1578)) (or $x74 $x1971 (>= (+ C A_3 Q_4 ?x507) 5.0)) (or $x64 (not (= L_2 L_3)) $x45002) (or $x1044 $x1971 $x45114) (or $x1783 (<= (+ C S_1 (* (- 1.0) S_3)) 0.0)) (or $x54 $x45920) (or $x54 $x64 $x46093) (or (<= (+ A_1 ?x590 (* (- 1.0) S_2)) 0.0) $x45920) (or $x1314 $x1668 (<= (+ A_1 ?x590 C) (+ ?x303 A_2))) (or $x54 (<= (+ L_1 (* (- 1.0) A_1) S_1) (- 5.0))) (or $x2994 $x44283) (or $x1044 (>= S_2 ?x45109) (>= S_2 ?x45333)) (or $x74 $x46423) (<= S_4 (+ ?x503 A_4 ?x483)) (<= S_3 ?x44478) (<= (+ ?x492 (* (- 1.0) A_0) S_2 L_0) 0.0) (<= (+ (* (- 1.0) A_1) L_0 ?x492 S_3) 0.0) (or $x74 $x43539 (>= S_2 (+ L_3 ?x511 A_2 ?x2136 A_1 C)) $x46740) (or $x74 $x44495 (>= S_0 (+ ?x2789 ?x337 A_1 ?x511 ?x503 A_4))) (or $x996 (<= S_3 (+ ?x289 ?x503 A_4 ?x483))) (or $x54 $x996 (<= S_0 (+ ?x492 ?x337 A_1 ?x511 ?x503 A_4))) (or $x74 $x45260 (>= S_1 (+ ?x492 ?x337 A_1 ?x511 ?x503 A_4))) (or $x1783 $x1876 $x43539 $x45290 $x46740) $x109243 (or $x74 $x43539 (<= A_2 (+ ?x503 C A_1)) $x46740) (or $x54 $x44819) (or $x44283 $x44495) (or (>= S_3 (+ A_3 ?x483 ?x289 ?x503)) (>= S_3 ?x47169)) $x109319 (or $x74 $x1040 (<= ?x1392 (+ A_3 ?x483 ?x289 ?x503)) $x46114 $x47537) (or $x44942 (<= ?x45839 ?x922)) (or $x44942 (>= S_0 (+ A_3 ?x483 ?x2802 ?x503))) (or $x44942 (>= S_2 ?x45824)) (or $x74 $x1040 (<= ?x1392 (+ A_3 ?x483 ?x289 ?x503)) (<= S_1 ?x45824)) (<= (+ ?x492 (* (- 1.0) S_1) S_2) 0.0) $x46222 (or $x44942 (>= S_1 ?x45839)) (or $x54 (<= S_0 ?x45063)) (or $x1044 $x1971 $x46190) (or $x74 $x43539 $x46740 $x47530) (or $x44946 (>= S_1 (+ ?x483 ?x2802 ?x503 A_4))) $x108737 (or $x1043 $x44946 (<= (+ A_2 ?x303 ?x2789 ?x511 ?x503 A_4) ?x922)) (or $x44946 (>= S_2 ?x46898)) (<= (+ ?x2789 (* (- 1.0) S_0) S_2) 0.0) (or $x64 $x45729 $x46144) (or $x1043 $x44946 (>= S_0 (+ A_2 ?x303 ?x2802 ?x511 ?x503 A_4))) (or $x64 $x996 $x46149 (<= S_0 (+ A_2 ?x303 ?x2789 ?x511 ?x503 A_4))) (or $x1044 $x1971 (<= ?x45375 ?x922)) $x45487 (or $x54 (<= (+ C L_1 (* (- 1.0) A_1) S_0) (- 5.0))) (or $x54 (<= S_0 ?x2064)) (or $x74 $x43593 (<= (+ ?x492 ?x337 A_1 ?x511 ?x503 A_4) ?x922)) (or $x996 $x44946 (<= S_2 ?x47169)) (or $x74 $x45454 $x45825 $x47537) (or $x1971 (>= S_2 ?x46898)) (or $x64 (<= (+ C ?x515 L_2 S_1) (- 5.0))) (or $x54 (<= S_1 (+ L_3 ?x511 A_2 ?x2136 A_1 C))) (or $x1876 $x43539 $x45290 $x46740 $x48899) (or $x996 $x1043 $x6443 $x43539 $x46740) $x56887 $x57989 (or $x1044 $x2994 $x45114) (or $x44283 $x45260) (<= (+ L_2 ?x511 S_3) 0.0) (<= (+ L_2 ?x289 ?x511 S_4) 0.0) (or $x44283 (>= S_2 ?x45109)) (or $x64 (<= S_1 ?x45109)) (or $x1044 $x1971 $x46105) (or $x54 $x1783 $x46093) (or (not (= L_2 L_3)) $x1971 $x46051 $x48636) (or $x54 (<= (+ ?x289 (* (- 1.0) A_1) L_1 S_2) (- 5.0))) (or $x1783 $x44283 $x45945) (or (>= S_2 (+ ?x503 ?x337 A_1)) $x44283) (or $x1783 $x45945 (>= S_3 ?x47169)) (or $x64 (<= S_3 (+ C ?x503 ?x303 A_2))) (or $x64 (<= S_4 (+ ?x1578 ?x503 ?x303 A_2))) (or $x996 $x44946 $x45775 (<= S_1 ?x46898)) (or $x996 (<= A_2 (+ A_1 ?x511 ?x503 A_4)) $x43539 $x46555) (or $x996 $x1040 $x45290 $x46555 $x47170) (or $x1044 $x44495 $x46190) (or (>= S_2 (+ ?x503 ?x337 A_1)) (>= S_2 ?x46898)) (or $x1044 $x45260 (>= S_1 ?x45375)) (or $x54 (<= S_3 (+ ?x1578 ?x337 A_1 ?x503))) (or $x54 (<= S_2 ?x45944)) (or $x54 (<= S_4 (+ (* 3.0 C) ?x337 A_1 ?x503))) (or $x996 $x45082 $x45299 $x45776) (or $x54 $x996 $x45082 $x45350 $x45722) $x57484 (or $x64 $x45137 $x45576 (<= ?x484 (+ A_2 ?x303 C ?x503))) (or $x64 $x45137 $x47526) (or $x1314 $x45110 $x47783) (or $x1044 (<= ?x45130 ?x922) (<= ?x45375 ?x922)) (or $x1044 (>= S_1 ?x45130) (>= S_1 ?x45375)) (or $x1044 $x43593 $x46105) (or $x1044 $x44495 $x46105) (or $x1044 (>= S_2 (+ ?x503 ?x337 A_1)) $x46105) (or $x1044 $x45260 $x46105) (or $x996 $x45082 $x45775 (<= S_1 ?x45333)) (or $x996 $x45002 $x45350 $x45776) (or $x1044 $x43593 (<= ?x45375 ?x922)) (<= (+ ?x2789 (* (- 1.0) S_1) S_3) 0.0) (or $x44283 $x45112) (or $x44283 (>= S_1 ?x45130)) (or $x44283 (<= ?x45130 ?x922)) (or $x44283 $x45144 $x45150) (or $x1044 $x45112 $x46190) (or $x1044 $x45144 $x45150 $x46051 $x48636) (or $x996 $x45082 $x45110 $x45722 $x48425) (or $x996 $x45082 $x45722 $x48425 (not $x47050)) (or $x996 $x45722 $x47050 $x47782 $x48425) (or $x64 (<= (+ ?x289 ?x515 L_2 S_3) (- 5.0))) (<= (+ ?x2789 L_0 (* (- 1.0) A_0) S_3) 0.0) (or $x44946 (<= (+ ?x483 ?x2802 ?x503 A_4) ?x922)) (or $x44946 (>= S_0 (+ ?x483 (* (- 5.0) C) ?x503 A_4))) (or $x996 $x1040 $x44946 $x46899 (<= S_0 (+ ?x483 ?x2802 ?x503 A_4)) $x47170) (or $x44946 $x46897 (not $x46899)) (<= (+ ?x2802 (* (- 1.0) S_0) S_3) 0.0) (or $x46012 (not $x46144) $x47527) (or $x74 (<= ?x2064 ?x922) (not $x48899)) (or $x74 $x43539 $x45243 $x46740) $x108790 (or $x1876 $x43539 $x45290 $x46740 $x49417) (or $x1783 $x46012 $x46093) (<= (+ ?x492 S_4 (* (- 1.0) S_3)) 0.0) (<= (+ ?x2802 L_0 (* (- 1.0) A_0) S_4) 0.0) $x105911 (or $x996 $x45082 $x45350 $x45722 $x46114) $x106812 (or $x996 $x45442 $x45454 $x47050 $x47783) (or $x74 (<= (+ C L_3 ?x511 S_2) (- 5.0))) (<= (+ ?x492 (* (- 1.0) S_2) S_3) 0.0) (<= (+ ?x2789 (* (- 1.0) S_2) S_4) 0.0) (<= (+ (* (- 5.0) C) (* (- 1.0) S_0) S_4) 0.0) (<= (+ (* (- 1.0) A_1) L_0 S_4 ?x2789) 0.0) (or $x1597 (<= (+ A_3 ?x515 ?x289) Q_4) $x46105) (<= (+ ?x2802 (* (- 1.0) S_1) S_4) 0.0) (or $x996 $x45082 $x45454 $x45576 $x47783) $x108066 $x105304 $x105568 $x109355 $x104785 (or $x74 $x46114 $x47527 $x47530) $x790 $x37 (not (>= (+ ?x507 L_3 S_4) 0.0)) (<= (+ ?x289 L_0 S_1 (* (- 1.0) A_0)) 0.0) (<= (+ L_0 S_0 (* (- 1.0) A_0)) 0.0) (<= (+ ?x492 S_1 (* (- 1.0) S_0)) 0.0))))))))))))))))))))))))))))))))))))))))))))))))))))))))))))))))))))))))))))))))))))))))))))))))))))))))))))))))))))))))))))))))))))))))))))))))
(check-sat)
